p tw 40 87
e 0 5
e 0 26
e 0 32
e 1 10
e 1 11
e 1 29
e 1 37
e 2 6
e 2 21
e 2 22
e 2 27
e 2 31
e 2 32
e 2 36
e 3 12
e 3 18
e 3 25
e 3 35
e 4 16
e 4 20
e 4 25
e 4 32
e 4 34
e 5 15
e 5 16
e 5 25
e 5 28
e 5 36
e 6 11
e 6 27
e 6 33
e 7 24
e 7 33
e 8 9
e 8 10
e 9 16
e 9 25
e 9 31
e 10 20
e 10 21
e 10 24
e 11 14
e 11 24
e 11 26
e 12 26
e 13 19
e 13 26
e 13 34
e 13 38
e 14 15
e 14 25
e 14 36
e 15 24
e 15 30
e 15 33
e 16 29
e 16 33
e 16 37
e 17 28
e 18 22
e 18 37
e 19 23
e 19 33
e 20 30
e 20 34
e 22 26
e 22 29
e 22 35
e 23 30
e 23 34
e 23 36
e 24 32
e 24 33
e 24 37
e 25 30
e 26 28
e 29 36
e 29 38
e 29 39
e 30 32
e 31 35
e 31 37
e 31 38
e 31 39
e 33 35
e 34 39
e 35 38
